MARKOV
112
2 2 2 2 2 2 2 2 2 2 2 2 2 2 2 2 2 2 2 2 2 2 2 2 2 2 2 2 2 2 2 2 2 2 2 2 2 2 2 2 2 2 2 2 2 2 2 2 2 2 2 2 2 2 2 2 2 2 2 2 2 2 2 2 2 2 2 2 2 2 2 2 2 2 2 2 2 2 2 2 2 2 2 2 2 2 2 2 2 2 2 2 2 2 2 2 2 2 2 2 2 2 2 2 2 2 2 2 2 2 2 2
141
1 0
1 1
1 12
1 23
1 26
1 27
1 28
1 29
1 30
1 31
1 2
1 3
1 4
1 5
1 6
1 7
1 8
1 9
1 10
1 11
1 13
1 14
1 15
1 16
1 17
1 18
1 19
1 20
1 21
1 22
1 24
1 25
1 32
1 63
1 86
1 87
1 88
1 93
1 94
1 95
1 96
1 97
1 98
1 99
1 100
1 101
1 102
1 103
1 104
1 105
1 106
1 107
1 108
1 109
1 110
1 111
1 33
1 34
1 35
1 36
1 37
1 38
1 39
1 40
1 41
1 42
1 43
1 44
1 45
1 46
1 47
1 48
1 49
1 50
1 51
1 52
1 53
1 54
1 55
1 56
1 57
1 58
1 59
1 60
1 61
1 62
1 64
1 65
1 66
1 67
1 68
1 69
1 70
1 71
1 72
1 73
1 74
1 75
1 76
1 77
1 78
1 79
1 80
1 81
1 82
1 83
1 84
1 85
1 89
1 90
1 91
1 92
2 32 0
2 95 23
2 97 26
2 99 27
2 101 27
2 109 31
2 33 2
2 36 3
2 39 4
2 43 5
2 47 6
2 52 8
2 53 8
2 56 9
2 57 10
2 58 10
2 59 10
2 64 13
2 65 13
2 67 14
2 68 14
2 70 15
2 71 15
2 72 15
2 73 16
2 81 20
2 82 21
2 83 22
2 85 22

2
0.5 0.5
2
0.5 0.5
2
0.5 0.5
2
0.5 0.5
2
0.5 0.5
2
0.5 0.5
2
0.5 0.5
2
0.5 0.5
2
0.5 0.5
2
0.5 0.5
2
0.5 0.5
2
0.5 0.5
2
0.5 0.5
2
0.5 0.5
2
0.5 0.5
2
0.5 0.5
2
0.5 0.5
2
0.5 0.5
2
0.5 0.5
2
0.5 0.5
2
0.5 0.5
2
0.5 0.5
2
0.5 0.5
2
0.5 0.5
2
0.5 0.5
2
0.5 0.5
2
0.5 0.5
2
0.5 0.5
2
0.5 0.5
2
0.5 0.5
2
0.5 0.5
2
0.5 0.5
2
0.09999999999999998 0.9
2
0.09999999999999998 0.9
2
0.09999999999999998 0.9
2
0.09999999999999998 0.9
2
0.09999999999999998 0.9
2
0.09999999999999998 0.9
2
0.09999999999999998 0.9
2
0.09999999999999998 0.9
2
0.09999999999999998 0.9
2
0.09999999999999998 0.9
2
0.09999999999999998 0.9
2
0.09999999999999998 0.9
2
0.09999999999999998 0.9
2
0.09999999999999998 0.9
2
0.09999999999999998 0.9
2
0.09999999999999998 0.9
2
0.09999999999999998 0.9
2
0.09999999999999998 0.9
2
0.09999999999999998 0.9
2
0.09999999999999998 0.9
2
0.09999999999999998 0.9
2
0.09999999999999998 0.9
2
0.09999999999999998 0.9
2
0.09999999999999998 0.9
2
0.09999999999999998 0.9
2
0.09999999999999998 0.9
2
0.09999999999999998 0.9
2
0.09999999999999998 0.9
2
0.09999999999999998 0.9
2
0.09999999999999998 0.9
2
0.09999999999999998 0.9
2
0.09999999999999998 0.9
2
0.09999999999999998 0.9
2
0.09999999999999998 0.9
2
0.09999999999999998 0.9
2
0.09999999999999998 0.9
2
0.09999999999999998 0.9
2
0.09999999999999998 0.9
2
0.09999999999999998 0.9
2
0.09999999999999998 0.9
2
0.09999999999999998 0.9
2
0.09999999999999998 0.9
2
0.09999999999999998 0.9
2
0.09999999999999998 0.9
2
0.09999999999999998 0.9
2
0.09999999999999998 0.9
2
0.09999999999999998 0.9
2
0.09999999999999998 0.9
2
0.09999999999999998 0.9
2
0.09999999999999998 0.9
2
0.09999999999999998 0.9
2
0.09999999999999998 0.9
2
0.09999999999999998 0.9
2
0.09999999999999998 0.9
2
0.09999999999999998 0.9
2
0.09999999999999998 0.9
2
0.09999999999999998 0.9
2
0.09999999999999998 0.9
2
0.09999999999999998 0.9
2
0.09999999999999998 0.9
2
0.09999999999999998 0.9
2
0.09999999999999998 0.9
2
0.09999999999999998 0.9
2
0.09999999999999998 0.9
2
0.09999999999999998 0.9
2
0.09999999999999998 0.9
2
0.09999999999999998 0.9
2
0.09999999999999998 0.9
2
0.09999999999999998 0.9
2
0.09999999999999998 0.9
2
0.09999999999999998 0.9
2
0.09999999999999998 0.9
2
0.09999999999999998 0.9
2
0.09999999999999998 0.9
2
0.09999999999999998 0.9
2
0.09999999999999998 0.9
2
0.09999999999999998 0.9
2
0.09999999999999998 0.9
2
0.09999999999999998 0.9
2
0.09999999999999998 0.9
4
0.7724609375 0.7724609375 0.2275390625 0.7724609375
4
0.72265625 0.72265625 0.72265625 0.27734375
4
0.5146484375 0.5146484375 0.5146484375 0.4853515625
4
0.99560546875 0.99560546875 0.99560546875 0.00439453125
4
0.958984375 0.958984375 0.958984375 0.041015625
4
0.93798828125 0.93798828125 0.93798828125 0.06201171875
4
0.81494140625 0.81494140625 0.81494140625 0.18505859375
4
0.87255859375 0.87255859375 0.87255859375 0.12744140625
4
0.68505859375 0.68505859375 0.68505859375 0.31494140625
4
0.60205078125 0.60205078125 0.60205078125 0.39794921875
4
0.7958984375 0.7958984375 0.2041015625 0.7958984375
4
0.59326171875 0.59326171875 0.59326171875 0.40673828125
4
0.95361328125 0.95361328125 0.95361328125 0.04638671875
4
0.94580078125 0.94580078125 0.94580078125 0.05419921875
4
0.77978515625 0.77978515625 0.22021484375 0.77978515625
4
0.86865234375 0.86865234375 0.13134765625 0.86865234375
4
0.615234375 0.615234375 0.615234375 0.384765625
4
0.9287109375 0.9287109375 0.9287109375 0.0712890625
4
0.90283203125 0.90283203125 0.90283203125 0.09716796875
4
0.93896484375 0.93896484375 0.93896484375 0.06103515625
4
0.87060546875 0.87060546875 0.87060546875 0.12939453125
4
0.984375 0.984375 0.984375 0.015625
4
0.9287109375 0.9287109375 0.9287109375 0.0712890625
4
0.974609375 0.974609375 0.974609375 0.025390625
4
0.9384765625 0.9384765625 0.9384765625 0.0615234375
4
0.61328125 0.61328125 0.38671875 0.61328125
4
0.6259765625 0.6259765625 0.6259765625 0.3740234375
4
0.99169921875 0.99169921875 0.99169921875 0.00830078125
4
0.98046875 0.98046875 0.98046875 0.01953125